% demand
num_movements = 35;
loading_factor = [1000, 1400, 1800, 1750, 900, 1000, 1900, 1100, 900, 1200, 850, 800, 900, 1550, 1400, 1700, 1200, 1150, 1600, 1200, 1350, 1300, 900, 1000, 1900, 1750, 1850, 1950, 1350, 1750, 1000, 900, 1750, 1450, 1350];
pickup_time = [0, 0, 0, 0, 0, 1, 1, 2, 3, 4, 4, 4, 4, 4, 4, 4, 4, 4, 6, 6, 6, 7, 7, 7, 7, 7, 8, 8, 8, 9, 9, 12, 12, 13, 13];
delivery_time = [1, 3, 3, 3, 4, 3, 4, 4, 4, 7, 7, 7, 6, 7, 6, 7, 6, 5, 7, 8, 7, 13, 10, 8, 9, 12, 9, 13, 13, 12, 11, 13, 13, 14, 14];

% transporter definition
total_capacity = 11000;
num_decks = 4;
capacity = [3000, 3000, 1000, 4000];

% ways out of decks
num_ways_out = 2;
paths_out = array3d(decks, ways_out, decks, [
% ways out of deck d1
2, 4, 0, 0, 3, 4, 0, 0, 

% ways out of deck d2
4, 0, 0, 0, 0, 0, 0, 0,	

% ways out of deck d3
4, 0, 0, 0, 0, 0, 0, 0,	

% ways out of deck d4
0, 0, 0, 0,	0, 0, 0, 0,	

]);

